&control
calculation = 'vc-relax',
restart_mode = 'from_scratch',
tstress = .true.
tprnfor = .true.
prefix = 'hcpFe'
pseudo_dir = '/rigel/home/qz2280/pseudo'
outdir = './tmp'
/
&system
ibrav = 0
celldm(1) =   4.68436
nat = 2
ntyp = 1
ecutwfc = 90.0
occupations='smearing', smearing='fd', degauss= 0.00633,
/
&electrons
diagonalization='david'
mixing_mode = 'plain'
mixing_beta = 0.3
conv_thr = 1.0d-8
/
&ions
ion_dynamics='damp'
/
&cell
cell_dynamics = 'damp-w'
press = -100
wmass = 0.00010
/
CELL_PARAMETERS
 1.0000000    0.0000000    0.0000000
-0.5000000    0.8660254    0.0000000
 0.0000000    0.0000000    1.6040000
ATOMIC_SPECIES
 Fe   1.0   Fe.gpbe-sp-bm3.vdb
ATOMIC_POSITIONS (crystal)
Fe   0.333333333333333   0.666666666666667   0.250000000000000
Fe   0.666666666666667   0.333333333333333   0.750000000000000
k_poinTS (Automatic)
10  10  10   1   1   1