Phonon
&inputph
prefix = hcpFe
tr2_ph=1.0d-14
ldisp = .true.
verbosity = 'high'
epsil = .false.
fildyn = 'dyn'
recover = .true.
outdir = './tmp'
amass(1) = 55.84500
nq1 = 4
nq2 = 4
nq3 = 3
/
1 1 1