phonons at on grid
&inputph
   prefix='hcpFe',
   ldisp=.true.,
   iverbosity=1,
   epsil=.false.,
   recover=.false.,
   fildyn='dyn',
   amass(1)=55.845,
   outdir='/rigel/mphys/users/qz2280/phonon/test9',
   tr2_ph=1.0d-14,
   alpha_mix=0.3
   nq1=4
   nq2=4
   nq3=4
/